
;this file is automatically generated: Fri Mar 18 16:15:14 GMT 2016

;declarations generated

(declare-fun person_name ( Int) Int )
(declare-fun Gender ( Int) Int )
(declare-fun container_ ( Int) Int )
(declare-fun Cardinality ( Int) Int )
(declare-fun rel_2315c87b_b4e3_4b78_ab61_8dde4c35e7a8_Marriage ( Int Int) Bool )
(declare-fun type_a5b66026_5203_4368_8e30_d388838e12b7_Person ( Int) Bool )
(declare-fun aux2 () Int )
(declare-fun aux0 () Int )
(declare-fun aux1 () Int )
(declare-fun obj_896b8d06_afcb_4eae_9fa9_8740ce61d23d ( Int) Int )
(declare-fun CivilStatus ( Int) Int )

;formula(s) generated
(assert (forall ((p Int)) (=> ( type_a5b66026_5203_4368_8e30_d388838e12b7_Person p )  (and (>= ( CivilStatus ( obj_896b8d06_afcb_4eae_9fa9_8740ce61d23d p )  )  0) (<= ( CivilStatus ( obj_896b8d06_afcb_4eae_9fa9_8740ce61d23d p )  )  3)))))
(assert (forall ((p Int)) (=> ( type_a5b66026_5203_4368_8e30_d388838e12b7_Person p )  (and (>= ( Gender ( obj_896b8d06_afcb_4eae_9fa9_8740ce61d23d p )  )  0) (<= ( Gender ( obj_896b8d06_afcb_4eae_9fa9_8740ce61d23d p )  )  1)))))
(assert (forall ((x Int)(y Int)) (=> (and ( rel_2315c87b_b4e3_4b78_ab61_8dde4c35e7a8_Marriage ( obj_896b8d06_afcb_4eae_9fa9_8740ce61d23d x )   ( obj_896b8d06_afcb_4eae_9fa9_8740ce61d23d y )  )  (and ( type_a5b66026_5203_4368_8e30_d388838e12b7_Person x )  ( type_a5b66026_5203_4368_8e30_d388838e12b7_Person y ) )) (or (or (or (= (* ( Cardinality ( container_ x )  )  0) (* ( Cardinality ( container_ y )  )  0)) (= (* ( Cardinality ( container_ x )  )  1) (* ( Cardinality ( container_ y )  )  0))) (= (* ( Cardinality ( container_ x )  )  0) (* ( Cardinality ( container_ y )  )  1))) (= (* ( Cardinality ( container_ x )  )  1) (* ( Cardinality ( container_ y )  )  1))))))
(assert (and (>= aux0 0) (<= aux0 1)))
(assert (or (or (forall ((p2 Int)(p1 Int)) (=> (and ( type_a5b66026_5203_4368_8e30_d388838e12b7_Person p1 )  ( type_a5b66026_5203_4368_8e30_d388838e12b7_Person p2 ) ) (=> (not (= ( obj_896b8d06_afcb_4eae_9fa9_8740ce61d23d p1 )  ( obj_896b8d06_afcb_4eae_9fa9_8740ce61d23d p2 ) ) ) (not (= ( person_name ( obj_896b8d06_afcb_4eae_9fa9_8740ce61d23d p1 )  )  ( person_name ( obj_896b8d06_afcb_4eae_9fa9_8740ce61d23d p2 )  ) ) )))) (and (= aux0 1) true)) (and (= aux0 0) false)))
(assert (forall ((p2 Int)(p1 Int)) (=> (and ( type_a5b66026_5203_4368_8e30_d388838e12b7_Person p1 )  ( type_a5b66026_5203_4368_8e30_d388838e12b7_Person p2 ) ) (=> (not (= ( obj_896b8d06_afcb_4eae_9fa9_8740ce61d23d p1 )  ( obj_896b8d06_afcb_4eae_9fa9_8740ce61d23d p2 ) ) ) (not (= ( person_name ( obj_896b8d06_afcb_4eae_9fa9_8740ce61d23d p1 )  )  ( person_name ( obj_896b8d06_afcb_4eae_9fa9_8740ce61d23d p2 )  ) ) )))))
(assert (and (>= aux1 0) (<= aux1 1)))
(assert (or (or (forall ((p Int)) (=> ( type_a5b66026_5203_4368_8e30_d388838e12b7_Person p )  (=> (= ( Gender ( obj_896b8d06_afcb_4eae_9fa9_8740ce61d23d p )  )  0) (not (exists ((v Int)) (and ( type_a5b66026_5203_4368_8e30_d388838e12b7_Person v )  ( rel_2315c87b_b4e3_4b78_ab61_8dde4c35e7a8_Marriage ( obj_896b8d06_afcb_4eae_9fa9_8740ce61d23d p )   ( obj_896b8d06_afcb_4eae_9fa9_8740ce61d23d v )  ) )) )))) (and (= aux1 1) true)) (and (= aux1 0) false)))
(assert (forall ((p Int)) (=> ( type_a5b66026_5203_4368_8e30_d388838e12b7_Person p )  (=> (= ( Gender ( obj_896b8d06_afcb_4eae_9fa9_8740ce61d23d p )  )  0) (not (exists ((v Int)) (and ( type_a5b66026_5203_4368_8e30_d388838e12b7_Person v )  ( rel_2315c87b_b4e3_4b78_ab61_8dde4c35e7a8_Marriage ( obj_896b8d06_afcb_4eae_9fa9_8740ce61d23d p )   ( obj_896b8d06_afcb_4eae_9fa9_8740ce61d23d v )  ) )) )))))
(assert (and (>= aux2 0) (<= aux2 1)))
(assert (or (or (forall ((p Int)) (=> ( type_a5b66026_5203_4368_8e30_d388838e12b7_Person p )  (=> (= ( Gender ( obj_896b8d06_afcb_4eae_9fa9_8740ce61d23d p )  )  1) (not (exists ((v Int)) (and ( type_a5b66026_5203_4368_8e30_d388838e12b7_Person v )  ( rel_2315c87b_b4e3_4b78_ab61_8dde4c35e7a8_Marriage ( obj_896b8d06_afcb_4eae_9fa9_8740ce61d23d p )   ( obj_896b8d06_afcb_4eae_9fa9_8740ce61d23d v )  ) )) )))) (and (= aux2 1) true)) (and (= aux2 0) false)))
(assert (forall ((p Int)) (=> ( type_a5b66026_5203_4368_8e30_d388838e12b7_Person p )  (=> (= ( Gender ( obj_896b8d06_afcb_4eae_9fa9_8740ce61d23d p )  )  1) (not (exists ((v Int)) (and ( type_a5b66026_5203_4368_8e30_d388838e12b7_Person v )  ( rel_2315c87b_b4e3_4b78_ab61_8dde4c35e7a8_Marriage ( obj_896b8d06_afcb_4eae_9fa9_8740ce61d23d p )   ( obj_896b8d06_afcb_4eae_9fa9_8740ce61d23d v )  ) )) )))))
(assert (exists ((o Int)) ( type_a5b66026_5203_4368_8e30_d388838e12b7_Person o ) ))
(assert (= (+ (+ aux0 aux1) aux2) 0))

 ;end of formula 